p cnf 840 2558
1 2 3 0
-181 0
-1 182 0
-2 182 0
-1 -2 183 0
-3 184 0
-181 184 0
-3 -181 185 0
-182 186 0
-184 186 0
-182 -184 187 0
-183 188 0
-185 188 0
-183 -185 189 0
-187 190 0
-188 190 0
-187 -188 191 0
-190 0
37 38 39 0
-192 0
-37 193 0
-38 193 0
-37 -38 194 0
-39 195 0
-192 195 0
-39 -192 196 0
-193 197 0
-195 197 0
-193 -195 198 0
-194 199 0
-196 199 0
-194 -196 200 0
-198 201 0
-199 201 0
-198 -199 202 0
-201 0
73 74 75 0
-203 0
-73 204 0
-74 204 0
-73 -74 205 0
-75 206 0
-203 206 0
-75 -203 207 0
-204 208 0
-206 208 0
-204 -206 209 0
-205 210 0
-207 210 0
-205 -207 211 0
-209 212 0
-210 212 0
-209 -210 213 0
-212 0
109 110 111 0
-214 0
-109 215 0
-110 215 0
-109 -110 216 0
-111 217 0
-214 217 0
-111 -214 218 0
-215 219 0
-217 219 0
-215 -217 220 0
-216 221 0
-218 221 0
-216 -218 222 0
-220 223 0
-221 223 0
-220 -221 224 0
-223 0
145 146 147 0
-225 0
-145 226 0
-146 226 0
-145 -146 227 0
-147 228 0
-225 228 0
-147 -225 229 0
-226 230 0
-228 230 0
-226 -228 231 0
-227 232 0
-229 232 0
-227 -229 233 0
-231 234 0
-232 234 0
-231 -232 235 0
-234 0
4 5 6 0
-236 0
-4 237 0
-5 237 0
-4 -5 238 0
-6 239 0
-236 239 0
-6 -236 240 0
-237 241 0
-239 241 0
-237 -239 242 0
-238 243 0
-240 243 0
-238 -240 244 0
-242 245 0
-243 245 0
-242 -243 246 0
-245 0
40 41 42 0
-247 0
-40 248 0
-41 248 0
-40 -41 249 0
-42 250 0
-247 250 0
-42 -247 251 0
-248 252 0
-250 252 0
-248 -250 253 0
-249 254 0
-251 254 0
-249 -251 255 0
-253 256 0
-254 256 0
-253 -254 257 0
-256 0
76 77 78 0
-258 0
-76 259 0
-77 259 0
-76 -77 260 0
-78 261 0
-258 261 0
-78 -258 262 0
-259 263 0
-261 263 0
-259 -261 264 0
-260 265 0
-262 265 0
-260 -262 266 0
-264 267 0
-265 267 0
-264 -265 268 0
-267 0
112 113 114 0
-269 0
-112 270 0
-113 270 0
-112 -113 271 0
-114 272 0
-269 272 0
-114 -269 273 0
-270 274 0
-272 274 0
-270 -272 275 0
-271 276 0
-273 276 0
-271 -273 277 0
-275 278 0
-276 278 0
-275 -276 279 0
-278 0
148 149 150 0
-280 0
-148 281 0
-149 281 0
-148 -149 282 0
-150 283 0
-280 283 0
-150 -280 284 0
-281 285 0
-283 285 0
-281 -283 286 0
-282 287 0
-284 287 0
-282 -284 288 0
-286 289 0
-287 289 0
-286 -287 290 0
-289 0
7 8 9 0
-291 0
-7 292 0
-8 292 0
-7 -8 293 0
-9 294 0
-291 294 0
-9 -291 295 0
-292 296 0
-294 296 0
-292 -294 297 0
-293 298 0
-295 298 0
-293 -295 299 0
-297 300 0
-298 300 0
-297 -298 301 0
-300 0
43 44 45 0
-302 0
-43 303 0
-44 303 0
-43 -44 304 0
-45 305 0
-302 305 0
-45 -302 306 0
-303 307 0
-305 307 0
-303 -305 308 0
-304 309 0
-306 309 0
-304 -306 310 0
-308 311 0
-309 311 0
-308 -309 312 0
-311 0
79 80 81 0
-313 0
-79 314 0
-80 314 0
-79 -80 315 0
-81 316 0
-313 316 0
-81 -313 317 0
-314 318 0
-316 318 0
-314 -316 319 0
-315 320 0
-317 320 0
-315 -317 321 0
-319 322 0
-320 322 0
-319 -320 323 0
-322 0
115 116 117 0
-324 0
-115 325 0
-116 325 0
-115 -116 326 0
-117 327 0
-324 327 0
-117 -324 328 0
-325 329 0
-327 329 0
-325 -327 330 0
-326 331 0
-328 331 0
-326 -328 332 0
-330 333 0
-331 333 0
-330 -331 334 0
-333 0
151 152 153 0
-335 0
-151 336 0
-152 336 0
-151 -152 337 0
-153 338 0
-335 338 0
-153 -335 339 0
-336 340 0
-338 340 0
-336 -338 341 0
-337 342 0
-339 342 0
-337 -339 343 0
-341 344 0
-342 344 0
-341 -342 345 0
-344 0
10 11 12 0
-346 0
-10 347 0
-11 347 0
-10 -11 348 0
-12 349 0
-346 349 0
-12 -346 350 0
-347 351 0
-349 351 0
-347 -349 352 0
-348 353 0
-350 353 0
-348 -350 354 0
-352 355 0
-353 355 0
-352 -353 356 0
-355 0
46 47 48 0
-357 0
-46 358 0
-47 358 0
-46 -47 359 0
-48 360 0
-357 360 0
-48 -357 361 0
-358 362 0
-360 362 0
-358 -360 363 0
-359 364 0
-361 364 0
-359 -361 365 0
-363 366 0
-364 366 0
-363 -364 367 0
-366 0
82 83 84 0
-368 0
-82 369 0
-83 369 0
-82 -83 370 0
-84 371 0
-368 371 0
-84 -368 372 0
-369 373 0
-371 373 0
-369 -371 374 0
-370 375 0
-372 375 0
-370 -372 376 0
-374 377 0
-375 377 0
-374 -375 378 0
-377 0
118 119 120 0
-379 0
-118 380 0
-119 380 0
-118 -119 381 0
-120 382 0
-379 382 0
-120 -379 383 0
-380 384 0
-382 384 0
-380 -382 385 0
-381 386 0
-383 386 0
-381 -383 387 0
-385 388 0
-386 388 0
-385 -386 389 0
-388 0
154 155 156 0
-390 0
-154 391 0
-155 391 0
-154 -155 392 0
-156 393 0
-390 393 0
-156 -390 394 0
-391 395 0
-393 395 0
-391 -393 396 0
-392 397 0
-394 397 0
-392 -394 398 0
-396 399 0
-397 399 0
-396 -397 400 0
-399 0
13 14 15 0
-401 0
-13 402 0
-14 402 0
-13 -14 403 0
-15 404 0
-401 404 0
-15 -401 405 0
-402 406 0
-404 406 0
-402 -404 407 0
-403 408 0
-405 408 0
-403 -405 409 0
-407 410 0
-408 410 0
-407 -408 411 0
-410 0
49 50 51 0
-412 0
-49 413 0
-50 413 0
-49 -50 414 0
-51 415 0
-412 415 0
-51 -412 416 0
-413 417 0
-415 417 0
-413 -415 418 0
-414 419 0
-416 419 0
-414 -416 420 0
-418 421 0
-419 421 0
-418 -419 422 0
-421 0
85 86 87 0
-423 0
-85 424 0
-86 424 0
-85 -86 425 0
-87 426 0
-423 426 0
-87 -423 427 0
-424 428 0
-426 428 0
-424 -426 429 0
-425 430 0
-427 430 0
-425 -427 431 0
-429 432 0
-430 432 0
-429 -430 433 0
-432 0
121 122 123 0
-434 0
-121 435 0
-122 435 0
-121 -122 436 0
-123 437 0
-434 437 0
-123 -434 438 0
-435 439 0
-437 439 0
-435 -437 440 0
-436 441 0
-438 441 0
-436 -438 442 0
-440 443 0
-441 443 0
-440 -441 444 0
-443 0
157 158 159 0
-445 0
-157 446 0
-158 446 0
-157 -158 447 0
-159 448 0
-445 448 0
-159 -445 449 0
-446 450 0
-448 450 0
-446 -448 451 0
-447 452 0
-449 452 0
-447 -449 453 0
-451 454 0
-452 454 0
-451 -452 455 0
-454 0
16 17 18 0
-456 0
-16 457 0
-17 457 0
-16 -17 458 0
-18 459 0
-456 459 0
-18 -456 460 0
-457 461 0
-459 461 0
-457 -459 462 0
-458 463 0
-460 463 0
-458 -460 464 0
-462 465 0
-463 465 0
-462 -463 466 0
-465 0
52 53 54 0
-467 0
-52 468 0
-53 468 0
-52 -53 469 0
-54 470 0
-467 470 0
-54 -467 471 0
-468 472 0
-470 472 0
-468 -470 473 0
-469 474 0
-471 474 0
-469 -471 475 0
-473 476 0
-474 476 0
-473 -474 477 0
-476 0
88 89 90 0
-478 0
-88 479 0
-89 479 0
-88 -89 480 0
-90 481 0
-478 481 0
-90 -478 482 0
-479 483 0
-481 483 0
-479 -481 484 0
-480 485 0
-482 485 0
-480 -482 486 0
-484 487 0
-485 487 0
-484 -485 488 0
-487 0
124 125 126 0
-489 0
-124 490 0
-125 490 0
-124 -125 491 0
-126 492 0
-489 492 0
-126 -489 493 0
-490 494 0
-492 494 0
-490 -492 495 0
-491 496 0
-493 496 0
-491 -493 497 0
-495 498 0
-496 498 0
-495 -496 499 0
-498 0
160 161 162 0
-500 0
-160 501 0
-161 501 0
-160 -161 502 0
-162 503 0
-500 503 0
-162 -500 504 0
-501 505 0
-503 505 0
-501 -503 506 0
-502 507 0
-504 507 0
-502 -504 508 0
-506 509 0
-507 509 0
-506 -507 510 0
-509 0
19 20 21 0
-511 0
-19 512 0
-20 512 0
-19 -20 513 0
-21 514 0
-511 514 0
-21 -511 515 0
-512 516 0
-514 516 0
-512 -514 517 0
-513 518 0
-515 518 0
-513 -515 519 0
-517 520 0
-518 520 0
-517 -518 521 0
-520 0
55 56 57 0
-522 0
-55 523 0
-56 523 0
-55 -56 524 0
-57 525 0
-522 525 0
-57 -522 526 0
-523 527 0
-525 527 0
-523 -525 528 0
-524 529 0
-526 529 0
-524 -526 530 0
-528 531 0
-529 531 0
-528 -529 532 0
-531 0
91 92 93 0
-533 0
-91 534 0
-92 534 0
-91 -92 535 0
-93 536 0
-533 536 0
-93 -533 537 0
-534 538 0
-536 538 0
-534 -536 539 0
-535 540 0
-537 540 0
-535 -537 541 0
-539 542 0
-540 542 0
-539 -540 543 0
-542 0
127 128 129 0
-544 0
-127 545 0
-128 545 0
-127 -128 546 0
-129 547 0
-544 547 0
-129 -544 548 0
-545 549 0
-547 549 0
-545 -547 550 0
-546 551 0
-548 551 0
-546 -548 552 0
-550 553 0
-551 553 0
-550 -551 554 0
-553 0
163 164 165 0
-555 0
-163 556 0
-164 556 0
-163 -164 557 0
-165 558 0
-555 558 0
-165 -555 559 0
-556 560 0
-558 560 0
-556 -558 561 0
-557 562 0
-559 562 0
-557 -559 563 0
-561 564 0
-562 564 0
-561 -562 565 0
-564 0
22 23 24 0
-566 0
-22 567 0
-23 567 0
-22 -23 568 0
-24 569 0
-566 569 0
-24 -566 570 0
-567 571 0
-569 571 0
-567 -569 572 0
-568 573 0
-570 573 0
-568 -570 574 0
-572 575 0
-573 575 0
-572 -573 576 0
-575 0
58 59 60 0
-577 0
-58 578 0
-59 578 0
-58 -59 579 0
-60 580 0
-577 580 0
-60 -577 581 0
-578 582 0
-580 582 0
-578 -580 583 0
-579 584 0
-581 584 0
-579 -581 585 0
-583 586 0
-584 586 0
-583 -584 587 0
-586 0
94 95 96 0
-588 0
-94 589 0
-95 589 0
-94 -95 590 0
-96 591 0
-588 591 0
-96 -588 592 0
-589 593 0
-591 593 0
-589 -591 594 0
-590 595 0
-592 595 0
-590 -592 596 0
-594 597 0
-595 597 0
-594 -595 598 0
-597 0
130 131 132 0
-599 0
-130 600 0
-131 600 0
-130 -131 601 0
-132 602 0
-599 602 0
-132 -599 603 0
-600 604 0
-602 604 0
-600 -602 605 0
-601 606 0
-603 606 0
-601 -603 607 0
-605 608 0
-606 608 0
-605 -606 609 0
-608 0
166 167 168 0
-610 0
-166 611 0
-167 611 0
-166 -167 612 0
-168 613 0
-610 613 0
-168 -610 614 0
-611 615 0
-613 615 0
-611 -613 616 0
-612 617 0
-614 617 0
-612 -614 618 0
-616 619 0
-617 619 0
-616 -617 620 0
-619 0
25 26 27 0
-621 0
-25 622 0
-26 622 0
-25 -26 623 0
-27 624 0
-621 624 0
-27 -621 625 0
-622 626 0
-624 626 0
-622 -624 627 0
-623 628 0
-625 628 0
-623 -625 629 0
-627 630 0
-628 630 0
-627 -628 631 0
-630 0
61 62 63 0
-632 0
-61 633 0
-62 633 0
-61 -62 634 0
-63 635 0
-632 635 0
-63 -632 636 0
-633 637 0
-635 637 0
-633 -635 638 0
-634 639 0
-636 639 0
-634 -636 640 0
-638 641 0
-639 641 0
-638 -639 642 0
-641 0
97 98 99 0
-643 0
-97 644 0
-98 644 0
-97 -98 645 0
-99 646 0
-643 646 0
-99 -643 647 0
-644 648 0
-646 648 0
-644 -646 649 0
-645 650 0
-647 650 0
-645 -647 651 0
-649 652 0
-650 652 0
-649 -650 653 0
-652 0
133 134 135 0
-654 0
-133 655 0
-134 655 0
-133 -134 656 0
-135 657 0
-654 657 0
-135 -654 658 0
-655 659 0
-657 659 0
-655 -657 660 0
-656 661 0
-658 661 0
-656 -658 662 0
-660 663 0
-661 663 0
-660 -661 664 0
-663 0
169 170 171 0
-665 0
-169 666 0
-170 666 0
-169 -170 667 0
-171 668 0
-665 668 0
-171 -665 669 0
-666 670 0
-668 670 0
-666 -668 671 0
-667 672 0
-669 672 0
-667 -669 673 0
-671 674 0
-672 674 0
-671 -672 675 0
-674 0
28 29 30 0
-676 0
-28 677 0
-29 677 0
-28 -29 678 0
-30 679 0
-676 679 0
-30 -676 680 0
-677 681 0
-679 681 0
-677 -679 682 0
-678 683 0
-680 683 0
-678 -680 684 0
-682 685 0
-683 685 0
-682 -683 686 0
-685 0
64 65 66 0
-687 0
-64 688 0
-65 688 0
-64 -65 689 0
-66 690 0
-687 690 0
-66 -687 691 0
-688 692 0
-690 692 0
-688 -690 693 0
-689 694 0
-691 694 0
-689 -691 695 0
-693 696 0
-694 696 0
-693 -694 697 0
-696 0
100 101 102 0
-698 0
-100 699 0
-101 699 0
-100 -101 700 0
-102 701 0
-698 701 0
-102 -698 702 0
-699 703 0
-701 703 0
-699 -701 704 0
-700 705 0
-702 705 0
-700 -702 706 0
-704 707 0
-705 707 0
-704 -705 708 0
-707 0
136 137 138 0
-709 0
-136 710 0
-137 710 0
-136 -137 711 0
-138 712 0
-709 712 0
-138 -709 713 0
-710 714 0
-712 714 0
-710 -712 715 0
-711 716 0
-713 716 0
-711 -713 717 0
-715 718 0
-716 718 0
-715 -716 719 0
-718 0
172 173 174 0
-720 0
-172 721 0
-173 721 0
-172 -173 722 0
-174 723 0
-720 723 0
-174 -720 724 0
-721 725 0
-723 725 0
-721 -723 726 0
-722 727 0
-724 727 0
-722 -724 728 0
-726 729 0
-727 729 0
-726 -727 730 0
-729 0
31 32 33 0
-731 0
-31 732 0
-32 732 0
-31 -32 733 0
-33 734 0
-731 734 0
-33 -731 735 0
-732 736 0
-734 736 0
-732 -734 737 0
-733 738 0
-735 738 0
-733 -735 739 0
-737 740 0
-738 740 0
-737 -738 741 0
-740 0
67 68 69 0
-742 0
-67 743 0
-68 743 0
-67 -68 744 0
-69 745 0
-742 745 0
-69 -742 746 0
-743 747 0
-745 747 0
-743 -745 748 0
-744 749 0
-746 749 0
-744 -746 750 0
-748 751 0
-749 751 0
-748 -749 752 0
-751 0
103 104 105 0
-753 0
-103 754 0
-104 754 0
-103 -104 755 0
-105 756 0
-753 756 0
-105 -753 757 0
-754 758 0
-756 758 0
-754 -756 759 0
-755 760 0
-757 760 0
-755 -757 761 0
-759 762 0
-760 762 0
-759 -760 763 0
-762 0
139 140 141 0
-764 0
-139 765 0
-140 765 0
-139 -140 766 0
-141 767 0
-764 767 0
-141 -764 768 0
-765 769 0
-767 769 0
-765 -767 770 0
-766 771 0
-768 771 0
-766 -768 772 0
-770 773 0
-771 773 0
-770 -771 774 0
-773 0
175 176 177 0
-775 0
-175 776 0
-176 776 0
-175 -176 777 0
-177 778 0
-775 778 0
-177 -775 779 0
-776 780 0
-778 780 0
-776 -778 781 0
-777 782 0
-779 782 0
-777 -779 783 0
-781 784 0
-782 784 0
-781 -782 785 0
-784 0
34 35 36 0
-786 0
-34 787 0
-35 787 0
-34 -35 788 0
-36 789 0
-786 789 0
-36 -786 790 0
-787 791 0
-789 791 0
-787 -789 792 0
-788 793 0
-790 793 0
-788 -790 794 0
-792 795 0
-793 795 0
-792 -793 796 0
-795 0
70 71 72 0
-797 0
-70 798 0
-71 798 0
-70 -71 799 0
-72 800 0
-797 800 0
-72 -797 801 0
-798 802 0
-800 802 0
-798 -800 803 0
-799 804 0
-801 804 0
-799 -801 805 0
-803 806 0
-804 806 0
-803 -804 807 0
-806 0
106 107 108 0
-808 0
-106 809 0
-107 809 0
-106 -107 810 0
-108 811 0
-808 811 0
-108 -808 812 0
-809 813 0
-811 813 0
-809 -811 814 0
-810 815 0
-812 815 0
-810 -812 816 0
-814 817 0
-815 817 0
-814 -815 818 0
-817 0
142 143 144 0
-819 0
-142 820 0
-143 820 0
-142 -143 821 0
-144 822 0
-819 822 0
-144 -819 823 0
-820 824 0
-822 824 0
-820 -822 825 0
-821 826 0
-823 826 0
-821 -823 827 0
-825 828 0
-826 828 0
-825 -826 829 0
-828 0
178 179 180 0
-830 0
-178 831 0
-179 831 0
-178 -179 832 0
-180 833 0
-830 833 0
-180 -830 834 0
-831 835 0
-833 835 0
-831 -833 836 0
-832 837 0
-834 837 0
-832 -834 838 0
-836 839 0
-837 839 0
-836 -837 840 0
-839 0
-1 -37 5 0
-1 -38 5 0
-1 -39 5 0
-2 -37 5 0
-2 -38 6 0
-2 -39 6 0
-3 -37 5 0
-3 -38 6 0
-3 -39 4 0
-37 -1 -73 41 0
-37 -2 -73 41 0
-37 -3 -73 41 0
-37 -1 -74 41 0
-37 -2 -74 41 0
-37 -3 -74 41 0
-37 -1 -75 41 0
-37 -2 -75 41 0
-37 -3 -75 41 0
-38 -1 -73 41 0
-38 -2 -73 41 0
-38 -3 -73 41 0
-38 -1 -74 41 0
-38 -2 -74 42 0
-38 -3 -74 42 0
-38 -1 -75 41 0
-38 -2 -75 42 0
-38 -3 -75 42 0
-39 -1 -73 41 0
-39 -2 -73 41 0
-39 -3 -73 41 0
-39 -1 -74 41 0
-39 -2 -74 42 0
-39 -3 -74 42 0
-39 -1 -75 41 0
-39 -2 -75 42 0
-39 -3 -75 40 0
-73 -37 -109 77 0
-73 -38 -109 77 0
-73 -39 -109 77 0
-73 -37 -110 77 0
-73 -38 -110 77 0
-73 -39 -110 77 0
-73 -37 -111 77 0
-73 -38 -111 77 0
-73 -39 -111 77 0
-74 -37 -109 77 0
-74 -38 -109 77 0
-74 -39 -109 77 0
-74 -37 -110 77 0
-74 -38 -110 78 0
-74 -39 -110 78 0
-74 -37 -111 77 0
-74 -38 -111 78 0
-74 -39 -111 78 0
-75 -37 -109 77 0
-75 -38 -109 77 0
-75 -39 -109 77 0
-75 -37 -110 77 0
-75 -38 -110 78 0
-75 -39 -110 78 0
-75 -37 -111 77 0
-75 -38 -111 78 0
-75 -39 -111 76 0
-109 -73 -145 113 0
-109 -74 -145 113 0
-109 -75 -145 113 0
-109 -73 -146 113 0
-109 -74 -146 113 0
-109 -75 -146 113 0
-109 -73 -147 113 0
-109 -74 -147 113 0
-109 -75 -147 113 0
-110 -73 -145 113 0
-110 -74 -145 113 0
-110 -75 -145 113 0
-110 -73 -146 113 0
-110 -74 -146 114 0
-110 -75 -146 114 0
-110 -73 -147 113 0
-110 -74 -147 114 0
-110 -75 -147 114 0
-111 -73 -145 113 0
-111 -74 -145 113 0
-111 -75 -145 113 0
-111 -73 -146 113 0
-111 -74 -146 114 0
-111 -75 -146 114 0
-111 -73 -147 113 0
-111 -74 -147 114 0
-111 -75 -147 112 0
-145 -109 149 0
-145 -110 149 0
-145 -111 149 0
-146 -109 149 0
-146 -110 150 0
-146 -111 150 0
-147 -109 149 0
-147 -110 150 0
-147 -111 148 0
-4 -40 8 0
-4 -41 8 0
-4 -42 8 0
-5 -40 8 0
-5 -41 9 0
-5 -42 9 0
-6 -40 8 0
-6 -41 9 0
-6 -42 7 0
-40 -4 -76 44 0
-40 -5 -76 44 0
-40 -6 -76 44 0
-40 -4 -77 44 0
-40 -5 -77 44 0
-40 -6 -77 44 0
-40 -4 -78 44 0
-40 -5 -78 44 0
-40 -6 -78 44 0
-41 -4 -76 44 0
-41 -5 -76 44 0
-41 -6 -76 44 0
-41 -4 -77 44 0
-41 -5 -77 45 0
-41 -6 -77 45 0
-41 -4 -78 44 0
-41 -5 -78 45 0
-41 -6 -78 45 0
-42 -4 -76 44 0
-42 -5 -76 44 0
-42 -6 -76 44 0
-42 -4 -77 44 0
-42 -5 -77 45 0
-42 -6 -77 45 0
-42 -4 -78 44 0
-42 -5 -78 45 0
-42 -6 -78 43 0
-76 -40 -112 80 0
-76 -41 -112 80 0
-76 -42 -112 80 0
-76 -40 -113 80 0
-76 -41 -113 80 0
-76 -42 -113 80 0
-76 -40 -114 80 0
-76 -41 -114 80 0
-76 -42 -114 80 0
-77 -40 -112 80 0
-77 -41 -112 80 0
-77 -42 -112 80 0
-77 -40 -113 80 0
-77 -41 -113 81 0
-77 -42 -113 81 0
-77 -40 -114 80 0
-77 -41 -114 81 0
-77 -42 -114 81 0
-78 -40 -112 80 0
-78 -41 -112 80 0
-78 -42 -112 80 0
-78 -40 -113 80 0
-78 -41 -113 81 0
-78 -42 -113 81 0
-78 -40 -114 80 0
-78 -41 -114 81 0
-78 -42 -114 79 0
-112 -76 -148 116 0
-112 -77 -148 116 0
-112 -78 -148 116 0
-112 -76 -149 116 0
-112 -77 -149 116 0
-112 -78 -149 116 0
-112 -76 -150 116 0
-112 -77 -150 116 0
-112 -78 -150 116 0
-113 -76 -148 116 0
-113 -77 -148 116 0
-113 -78 -148 116 0
-113 -76 -149 116 0
-113 -77 -149 117 0
-113 -78 -149 117 0
-113 -76 -150 116 0
-113 -77 -150 117 0
-113 -78 -150 117 0
-114 -76 -148 116 0
-114 -77 -148 116 0
-114 -78 -148 116 0
-114 -76 -149 116 0
-114 -77 -149 117 0
-114 -78 -149 117 0
-114 -76 -150 116 0
-114 -77 -150 117 0
-114 -78 -150 115 0
-148 -112 152 0
-148 -113 152 0
-148 -114 152 0
-149 -112 152 0
-149 -113 153 0
-149 -114 153 0
-150 -112 152 0
-150 -113 153 0
-150 -114 151 0
-7 -43 11 0
-7 -44 11 0
-7 -45 11 0
-8 -43 11 0
-8 -44 12 0
-8 -45 12 0
-9 -43 11 0
-9 -44 12 0
-9 -45 10 0
-43 -7 -79 47 0
-43 -8 -79 47 0
-43 -9 -79 47 0
-43 -7 -80 47 0
-43 -8 -80 47 0
-43 -9 -80 47 0
-43 -7 -81 47 0
-43 -8 -81 47 0
-43 -9 -81 47 0
-44 -7 -79 47 0
-44 -8 -79 47 0
-44 -9 -79 47 0
-44 -7 -80 47 0
-44 -8 -80 48 0
-44 -9 -80 48 0
-44 -7 -81 47 0
-44 -8 -81 48 0
-44 -9 -81 48 0
-45 -7 -79 47 0
-45 -8 -79 47 0
-45 -9 -79 47 0
-45 -7 -80 47 0
-45 -8 -80 48 0
-45 -9 -80 48 0
-45 -7 -81 47 0
-45 -8 -81 48 0
-45 -9 -81 46 0
-79 -43 -115 83 0
-79 -44 -115 83 0
-79 -45 -115 83 0
-79 -43 -116 83 0
-79 -44 -116 83 0
-79 -45 -116 83 0
-79 -43 -117 83 0
-79 -44 -117 83 0
-79 -45 -117 83 0
-80 -43 -115 83 0
-80 -44 -115 83 0
-80 -45 -115 83 0
-80 -43 -116 83 0
-80 -44 -116 84 0
-80 -45 -116 84 0
-80 -43 -117 83 0
-80 -44 -117 84 0
-80 -45 -117 84 0
-81 -43 -115 83 0
-81 -44 -115 83 0
-81 -45 -115 83 0
-81 -43 -116 83 0
-81 -44 -116 84 0
-81 -45 -116 84 0
-81 -43 -117 83 0
-81 -44 -117 84 0
-81 -45 -117 82 0
-115 -79 -151 119 0
-115 -80 -151 119 0
-115 -81 -151 119 0
-115 -79 -152 119 0
-115 -80 -152 119 0
-115 -81 -152 119 0
-115 -79 -153 119 0
-115 -80 -153 119 0
-115 -81 -153 119 0
-116 -79 -151 119 0
-116 -80 -151 119 0
-116 -81 -151 119 0
-116 -79 -152 119 0
-116 -80 -152 120 0
-116 -81 -152 120 0
-116 -79 -153 119 0
-116 -80 -153 120 0
-116 -81 -153 120 0
-117 -79 -151 119 0
-117 -80 -151 119 0
-117 -81 -151 119 0
-117 -79 -152 119 0
-117 -80 -152 120 0
-117 -81 -152 120 0
-117 -79 -153 119 0
-117 -80 -153 120 0
-117 -81 -153 118 0
-151 -115 155 0
-151 -116 155 0
-151 -117 155 0
-152 -115 155 0
-152 -116 156 0
-152 -117 156 0
-153 -115 155 0
-153 -116 156 0
-153 -117 154 0
-10 -46 14 0
-10 -47 14 0
-10 -48 14 0
-11 -46 14 0
-11 -47 15 0
-11 -48 15 0
-12 -46 14 0
-12 -47 15 0
-12 -48 13 0
-46 -10 -82 50 0
-46 -11 -82 50 0
-46 -12 -82 50 0
-46 -10 -83 50 0
-46 -11 -83 50 0
-46 -12 -83 50 0
-46 -10 -84 50 0
-46 -11 -84 50 0
-46 -12 -84 50 0
-47 -10 -82 50 0
-47 -11 -82 50 0
-47 -12 -82 50 0
-47 -10 -83 50 0
-47 -11 -83 51 0
-47 -12 -83 51 0
-47 -10 -84 50 0
-47 -11 -84 51 0
-47 -12 -84 51 0
-48 -10 -82 50 0
-48 -11 -82 50 0
-48 -12 -82 50 0
-48 -10 -83 50 0
-48 -11 -83 51 0
-48 -12 -83 51 0
-48 -10 -84 50 0
-48 -11 -84 51 0
-48 -12 -84 49 0
-82 -46 -118 86 0
-82 -47 -118 86 0
-82 -48 -118 86 0
-82 -46 -119 86 0
-82 -47 -119 86 0
-82 -48 -119 86 0
-82 -46 -120 86 0
-82 -47 -120 86 0
-82 -48 -120 86 0
-83 -46 -118 86 0
-83 -47 -118 86 0
-83 -48 -118 86 0
-83 -46 -119 86 0
-83 -47 -119 87 0
-83 -48 -119 87 0
-83 -46 -120 86 0
-83 -47 -120 87 0
-83 -48 -120 87 0
-84 -46 -118 86 0
-84 -47 -118 86 0
-84 -48 -118 86 0
-84 -46 -119 86 0
-84 -47 -119 87 0
-84 -48 -119 87 0
-84 -46 -120 86 0
-84 -47 -120 87 0
-84 -48 -120 85 0
-118 -82 -154 122 0
-118 -83 -154 122 0
-118 -84 -154 122 0
-118 -82 -155 122 0
-118 -83 -155 122 0
-118 -84 -155 122 0
-118 -82 -156 122 0
-118 -83 -156 122 0
-118 -84 -156 122 0
-119 -82 -154 122 0
-119 -83 -154 122 0
-119 -84 -154 122 0
-119 -82 -155 122 0
-119 -83 -155 123 0
-119 -84 -155 123 0
-119 -82 -156 122 0
-119 -83 -156 123 0
-119 -84 -156 123 0
-120 -82 -154 122 0
-120 -83 -154 122 0
-120 -84 -154 122 0
-120 -82 -155 122 0
-120 -83 -155 123 0
-120 -84 -155 123 0
-120 -82 -156 122 0
-120 -83 -156 123 0
-120 -84 -156 121 0
-154 -118 158 0
-154 -119 158 0
-154 -120 158 0
-155 -118 158 0
-155 -119 159 0
-155 -120 159 0
-156 -118 158 0
-156 -119 159 0
-156 -120 157 0
-13 -49 17 0
-13 -50 17 0
-13 -51 17 0
-14 -49 17 0
-14 -50 18 0
-14 -51 18 0
-15 -49 17 0
-15 -50 18 0
-15 -51 16 0
-49 -13 -85 53 0
-49 -14 -85 53 0
-49 -15 -85 53 0
-49 -13 -86 53 0
-49 -14 -86 53 0
-49 -15 -86 53 0
-49 -13 -87 53 0
-49 -14 -87 53 0
-49 -15 -87 53 0
-50 -13 -85 53 0
-50 -14 -85 53 0
-50 -15 -85 53 0
-50 -13 -86 53 0
-50 -14 -86 54 0
-50 -15 -86 54 0
-50 -13 -87 53 0
-50 -14 -87 54 0
-50 -15 -87 54 0
-51 -13 -85 53 0
-51 -14 -85 53 0
-51 -15 -85 53 0
-51 -13 -86 53 0
-51 -14 -86 54 0
-51 -15 -86 54 0
-51 -13 -87 53 0
-51 -14 -87 54 0
-51 -15 -87 52 0
-85 -49 -121 89 0
-85 -50 -121 89 0
-85 -51 -121 89 0
-85 -49 -122 89 0
-85 -50 -122 89 0
-85 -51 -122 89 0
-85 -49 -123 89 0
-85 -50 -123 89 0
-85 -51 -123 89 0
-86 -49 -121 89 0
-86 -50 -121 89 0
-86 -51 -121 89 0
-86 -49 -122 89 0
-86 -50 -122 90 0
-86 -51 -122 90 0
-86 -49 -123 89 0
-86 -50 -123 90 0
-86 -51 -123 90 0
-87 -49 -121 89 0
-87 -50 -121 89 0
-87 -51 -121 89 0
-87 -49 -122 89 0
-87 -50 -122 90 0
-87 -51 -122 90 0
-87 -49 -123 89 0
-87 -50 -123 90 0
-87 -51 -123 88 0
-121 -85 -157 125 0
-121 -86 -157 125 0
-121 -87 -157 125 0
-121 -85 -158 125 0
-121 -86 -158 125 0
-121 -87 -158 125 0
-121 -85 -159 125 0
-121 -86 -159 125 0
-121 -87 -159 125 0
-122 -85 -157 125 0
-122 -86 -157 125 0
-122 -87 -157 125 0
-122 -85 -158 125 0
-122 -86 -158 126 0
-122 -87 -158 126 0
-122 -85 -159 125 0
-122 -86 -159 126 0
-122 -87 -159 126 0
-123 -85 -157 125 0
-123 -86 -157 125 0
-123 -87 -157 125 0
-123 -85 -158 125 0
-123 -86 -158 126 0
-123 -87 -158 126 0
-123 -85 -159 125 0
-123 -86 -159 126 0
-123 -87 -159 124 0
-157 -121 161 0
-157 -122 161 0
-157 -123 161 0
-158 -121 161 0
-158 -122 162 0
-158 -123 162 0
-159 -121 161 0
-159 -122 162 0
-159 -123 160 0
-16 -52 20 0
-16 -53 20 0
-16 -54 20 0
-17 -52 20 0
-17 -53 21 0
-17 -54 21 0
-18 -52 20 0
-18 -53 21 0
-18 -54 19 0
-52 -16 -88 56 0
-52 -17 -88 56 0
-52 -18 -88 56 0
-52 -16 -89 56 0
-52 -17 -89 56 0
-52 -18 -89 56 0
-52 -16 -90 56 0
-52 -17 -90 56 0
-52 -18 -90 56 0
-53 -16 -88 56 0
-53 -17 -88 56 0
-53 -18 -88 56 0
-53 -16 -89 56 0
-53 -17 -89 57 0
-53 -18 -89 57 0
-53 -16 -90 56 0
-53 -17 -90 57 0
-53 -18 -90 57 0
-54 -16 -88 56 0
-54 -17 -88 56 0
-54 -18 -88 56 0
-54 -16 -89 56 0
-54 -17 -89 57 0
-54 -18 -89 57 0
-54 -16 -90 56 0
-54 -17 -90 57 0
-54 -18 -90 55 0
-88 -52 -124 92 0
-88 -53 -124 92 0
-88 -54 -124 92 0
-88 -52 -125 92 0
-88 -53 -125 92 0
-88 -54 -125 92 0
-88 -52 -126 92 0
-88 -53 -126 92 0
-88 -54 -126 92 0
-89 -52 -124 92 0
-89 -53 -124 92 0
-89 -54 -124 92 0
-89 -52 -125 92 0
-89 -53 -125 93 0
-89 -54 -125 93 0
-89 -52 -126 92 0
-89 -53 -126 93 0
-89 -54 -126 93 0
-90 -52 -124 92 0
-90 -53 -124 92 0
-90 -54 -124 92 0
-90 -52 -125 92 0
-90 -53 -125 93 0
-90 -54 -125 93 0
-90 -52 -126 92 0
-90 -53 -126 93 0
-90 -54 -126 91 0
-124 -88 -160 128 0
-124 -89 -160 128 0
-124 -90 -160 128 0
-124 -88 -161 128 0
-124 -89 -161 128 0
-124 -90 -161 128 0
-124 -88 -162 128 0
-124 -89 -162 128 0
-124 -90 -162 128 0
-125 -88 -160 128 0
-125 -89 -160 128 0
-125 -90 -160 128 0
-125 -88 -161 128 0
-125 -89 -161 129 0
-125 -90 -161 129 0
-125 -88 -162 128 0
-125 -89 -162 129 0
-125 -90 -162 129 0
-126 -88 -160 128 0
-126 -89 -160 128 0
-126 -90 -160 128 0
-126 -88 -161 128 0
-126 -89 -161 129 0
-126 -90 -161 129 0
-126 -88 -162 128 0
-126 -89 -162 129 0
-126 -90 -162 127 0
-160 -124 164 0
-160 -125 164 0
-160 -126 164 0
-161 -124 164 0
-161 -125 165 0
-161 -126 165 0
-162 -124 164 0
-162 -125 165 0
-162 -126 163 0
-19 -55 23 0
-19 -56 23 0
-19 -57 23 0
-20 -55 23 0
-20 -56 24 0
-20 -57 24 0
-21 -55 23 0
-21 -56 24 0
-21 -57 22 0
-55 -19 -91 59 0
-55 -20 -91 59 0
-55 -21 -91 59 0
-55 -19 -92 59 0
-55 -20 -92 59 0
-55 -21 -92 59 0
-55 -19 -93 59 0
-55 -20 -93 59 0
-55 -21 -93 59 0
-56 -19 -91 59 0
-56 -20 -91 59 0
-56 -21 -91 59 0
-56 -19 -92 59 0
-56 -20 -92 60 0
-56 -21 -92 60 0
-56 -19 -93 59 0
-56 -20 -93 60 0
-56 -21 -93 60 0
-57 -19 -91 59 0
-57 -20 -91 59 0
-57 -21 -91 59 0
-57 -19 -92 59 0
-57 -20 -92 60 0
-57 -21 -92 60 0
-57 -19 -93 59 0
-57 -20 -93 60 0
-57 -21 -93 58 0
-91 -55 -127 95 0
-91 -56 -127 95 0
-91 -57 -127 95 0
-91 -55 -128 95 0
-91 -56 -128 95 0
-91 -57 -128 95 0
-91 -55 -129 95 0
-91 -56 -129 95 0
-91 -57 -129 95 0
-92 -55 -127 95 0
-92 -56 -127 95 0
-92 -57 -127 95 0
-92 -55 -128 95 0
-92 -56 -128 96 0
-92 -57 -128 96 0
-92 -55 -129 95 0
-92 -56 -129 96 0
-92 -57 -129 96 0
-93 -55 -127 95 0
-93 -56 -127 95 0
-93 -57 -127 95 0
-93 -55 -128 95 0
-93 -56 -128 96 0
-93 -57 -128 96 0
-93 -55 -129 95 0
-93 -56 -129 96 0
-93 -57 -129 94 0
-127 -91 -163 131 0
-127 -92 -163 131 0
-127 -93 -163 131 0
-127 -91 -164 131 0
-127 -92 -164 131 0
-127 -93 -164 131 0
-127 -91 -165 131 0
-127 -92 -165 131 0
-127 -93 -165 131 0
-128 -91 -163 131 0
-128 -92 -163 131 0
-128 -93 -163 131 0
-128 -91 -164 131 0
-128 -92 -164 132 0
-128 -93 -164 132 0
-128 -91 -165 131 0
-128 -92 -165 132 0
-128 -93 -165 132 0
-129 -91 -163 131 0
-129 -92 -163 131 0
-129 -93 -163 131 0
-129 -91 -164 131 0
-129 -92 -164 132 0
-129 -93 -164 132 0
-129 -91 -165 131 0
-129 -92 -165 132 0
-129 -93 -165 130 0
-163 -127 167 0
-163 -128 167 0
-163 -129 167 0
-164 -127 167 0
-164 -128 168 0
-164 -129 168 0
-165 -127 167 0
-165 -128 168 0
-165 -129 166 0
-22 -58 26 0
-22 -59 26 0
-22 -60 26 0
-23 -58 26 0
-23 -59 27 0
-23 -60 27 0
-24 -58 26 0
-24 -59 27 0
-24 -60 25 0
-58 -22 -94 62 0
-58 -23 -94 62 0
-58 -24 -94 62 0
-58 -22 -95 62 0
-58 -23 -95 62 0
-58 -24 -95 62 0
-58 -22 -96 62 0
-58 -23 -96 62 0
-58 -24 -96 62 0
-59 -22 -94 62 0
-59 -23 -94 62 0
-59 -24 -94 62 0
-59 -22 -95 62 0
-59 -23 -95 63 0
-59 -24 -95 63 0
-59 -22 -96 62 0
-59 -23 -96 63 0
-59 -24 -96 63 0
-60 -22 -94 62 0
-60 -23 -94 62 0
-60 -24 -94 62 0
-60 -22 -95 62 0
-60 -23 -95 63 0
-60 -24 -95 63 0
-60 -22 -96 62 0
-60 -23 -96 63 0
-60 -24 -96 61 0
-94 -58 -130 98 0
-94 -59 -130 98 0
-94 -60 -130 98 0
-94 -58 -131 98 0
-94 -59 -131 98 0
-94 -60 -131 98 0
-94 -58 -132 98 0
-94 -59 -132 98 0
-94 -60 -132 98 0
-95 -58 -130 98 0
-95 -59 -130 98 0
-95 -60 -130 98 0
-95 -58 -131 98 0
-95 -59 -131 99 0
-95 -60 -131 99 0
-95 -58 -132 98 0
-95 -59 -132 99 0
-95 -60 -132 99 0
-96 -58 -130 98 0
-96 -59 -130 98 0
-96 -60 -130 98 0
-96 -58 -131 98 0
-96 -59 -131 99 0
-96 -60 -131 99 0
-96 -58 -132 98 0
-96 -59 -132 99 0
-96 -60 -132 97 0
-130 -94 -166 134 0
-130 -95 -166 134 0
-130 -96 -166 134 0
-130 -94 -167 134 0
-130 -95 -167 134 0
-130 -96 -167 134 0
-130 -94 -168 134 0
-130 -95 -168 134 0
-130 -96 -168 134 0
-131 -94 -166 134 0
-131 -95 -166 134 0
-131 -96 -166 134 0
-131 -94 -167 134 0
-131 -95 -167 135 0
-131 -96 -167 135 0
-131 -94 -168 134 0
-131 -95 -168 135 0
-131 -96 -168 135 0
-132 -94 -166 134 0
-132 -95 -166 134 0
-132 -96 -166 134 0
-132 -94 -167 134 0
-132 -95 -167 135 0
-132 -96 -167 135 0
-132 -94 -168 134 0
-132 -95 -168 135 0
-132 -96 -168 133 0
-166 -130 170 0
-166 -131 170 0
-166 -132 170 0
-167 -130 170 0
-167 -131 171 0
-167 -132 171 0
-168 -130 170 0
-168 -131 171 0
-168 -132 169 0
-25 -61 29 0
-25 -62 29 0
-25 -63 29 0
-26 -61 29 0
-26 -62 30 0
-26 -63 30 0
-27 -61 29 0
-27 -62 30 0
-27 -63 28 0
-61 -25 -97 65 0
-61 -26 -97 65 0
-61 -27 -97 65 0
-61 -25 -98 65 0
-61 -26 -98 65 0
-61 -27 -98 65 0
-61 -25 -99 65 0
-61 -26 -99 65 0
-61 -27 -99 65 0
-62 -25 -97 65 0
-62 -26 -97 65 0
-62 -27 -97 65 0
-62 -25 -98 65 0
-62 -26 -98 66 0
-62 -27 -98 66 0
-62 -25 -99 65 0
-62 -26 -99 66 0
-62 -27 -99 66 0
-63 -25 -97 65 0
-63 -26 -97 65 0
-63 -27 -97 65 0
-63 -25 -98 65 0
-63 -26 -98 66 0
-63 -27 -98 66 0
-63 -25 -99 65 0
-63 -26 -99 66 0
-63 -27 -99 64 0
-97 -61 -133 101 0
-97 -62 -133 101 0
-97 -63 -133 101 0
-97 -61 -134 101 0
-97 -62 -134 101 0
-97 -63 -134 101 0
-97 -61 -135 101 0
-97 -62 -135 101 0
-97 -63 -135 101 0
-98 -61 -133 101 0
-98 -62 -133 101 0
-98 -63 -133 101 0
-98 -61 -134 101 0
-98 -62 -134 102 0
-98 -63 -134 102 0
-98 -61 -135 101 0
-98 -62 -135 102 0
-98 -63 -135 102 0
-99 -61 -133 101 0
-99 -62 -133 101 0
-99 -63 -133 101 0
-99 -61 -134 101 0
-99 -62 -134 102 0
-99 -63 -134 102 0
-99 -61 -135 101 0
-99 -62 -135 102 0
-99 -63 -135 100 0
-133 -97 -169 137 0
-133 -98 -169 137 0
-133 -99 -169 137 0
-133 -97 -170 137 0
-133 -98 -170 137 0
-133 -99 -170 137 0
-133 -97 -171 137 0
-133 -98 -171 137 0
-133 -99 -171 137 0
-134 -97 -169 137 0
-134 -98 -169 137 0
-134 -99 -169 137 0
-134 -97 -170 137 0
-134 -98 -170 138 0
-134 -99 -170 138 0
-134 -97 -171 137 0
-134 -98 -171 138 0
-134 -99 -171 138 0
-135 -97 -169 137 0
-135 -98 -169 137 0
-135 -99 -169 137 0
-135 -97 -170 137 0
-135 -98 -170 138 0
-135 -99 -170 138 0
-135 -97 -171 137 0
-135 -98 -171 138 0
-135 -99 -171 136 0
-169 -133 173 0
-169 -134 173 0
-169 -135 173 0
-170 -133 173 0
-170 -134 174 0
-170 -135 174 0
-171 -133 173 0
-171 -134 174 0
-171 -135 172 0
-28 -64 32 0
-28 -65 32 0
-28 -66 32 0
-29 -64 32 0
-29 -65 33 0
-29 -66 33 0
-30 -64 32 0
-30 -65 33 0
-30 -66 31 0
-64 -28 -100 68 0
-64 -29 -100 68 0
-64 -30 -100 68 0
-64 -28 -101 68 0
-64 -29 -101 68 0
-64 -30 -101 68 0
-64 -28 -102 68 0
-64 -29 -102 68 0
-64 -30 -102 68 0
-65 -28 -100 68 0
-65 -29 -100 68 0
-65 -30 -100 68 0
-65 -28 -101 68 0
-65 -29 -101 69 0
-65 -30 -101 69 0
-65 -28 -102 68 0
-65 -29 -102 69 0
-65 -30 -102 69 0
-66 -28 -100 68 0
-66 -29 -100 68 0
-66 -30 -100 68 0
-66 -28 -101 68 0
-66 -29 -101 69 0
-66 -30 -101 69 0
-66 -28 -102 68 0
-66 -29 -102 69 0
-66 -30 -102 67 0
-100 -64 -136 104 0
-100 -65 -136 104 0
-100 -66 -136 104 0
-100 -64 -137 104 0
-100 -65 -137 104 0
-100 -66 -137 104 0
-100 -64 -138 104 0
-100 -65 -138 104 0
-100 -66 -138 104 0
-101 -64 -136 104 0
-101 -65 -136 104 0
-101 -66 -136 104 0
-101 -64 -137 104 0
-101 -65 -137 105 0
-101 -66 -137 105 0
-101 -64 -138 104 0
-101 -65 -138 105 0
-101 -66 -138 105 0
-102 -64 -136 104 0
-102 -65 -136 104 0
-102 -66 -136 104 0
-102 -64 -137 104 0
-102 -65 -137 105 0
-102 -66 -137 105 0
-102 -64 -138 104 0
-102 -65 -138 105 0
-102 -66 -138 103 0
-136 -100 -172 140 0
-136 -101 -172 140 0
-136 -102 -172 140 0
-136 -100 -173 140 0
-136 -101 -173 140 0
-136 -102 -173 140 0
-136 -100 -174 140 0
-136 -101 -174 140 0
-136 -102 -174 140 0
-137 -100 -172 140 0
-137 -101 -172 140 0
-137 -102 -172 140 0
-137 -100 -173 140 0
-137 -101 -173 141 0
-137 -102 -173 141 0
-137 -100 -174 140 0
-137 -101 -174 141 0
-137 -102 -174 141 0
-138 -100 -172 140 0
-138 -101 -172 140 0
-138 -102 -172 140 0
-138 -100 -173 140 0
-138 -101 -173 141 0
-138 -102 -173 141 0
-138 -100 -174 140 0
-138 -101 -174 141 0
-138 -102 -174 139 0
-172 -136 176 0
-172 -137 176 0
-172 -138 176 0
-173 -136 176 0
-173 -137 177 0
-173 -138 177 0
-174 -136 176 0
-174 -137 177 0
-174 -138 175 0
-31 -67 35 0
-31 -68 35 0
-31 -69 35 0
-32 -67 35 0
-32 -68 36 0
-32 -69 36 0
-33 -67 35 0
-33 -68 36 0
-33 -69 34 0
-67 -31 -103 71 0
-67 -32 -103 71 0
-67 -33 -103 71 0
-67 -31 -104 71 0
-67 -32 -104 71 0
-67 -33 -104 71 0
-67 -31 -105 71 0
-67 -32 -105 71 0
-67 -33 -105 71 0
-68 -31 -103 71 0
-68 -32 -103 71 0
-68 -33 -103 71 0
-68 -31 -104 71 0
-68 -32 -104 72 0
-68 -33 -104 72 0
-68 -31 -105 71 0
-68 -32 -105 72 0
-68 -33 -105 72 0
-69 -31 -103 71 0
-69 -32 -103 71 0
-69 -33 -103 71 0
-69 -31 -104 71 0
-69 -32 -104 72 0
-69 -33 -104 72 0
-69 -31 -105 71 0
-69 -32 -105 72 0
-69 -33 -105 70 0
-103 -67 -139 107 0
-103 -68 -139 107 0
-103 -69 -139 107 0
-103 -67 -140 107 0
-103 -68 -140 107 0
-103 -69 -140 107 0
-103 -67 -141 107 0
-103 -68 -141 107 0
-103 -69 -141 107 0
-104 -67 -139 107 0
-104 -68 -139 107 0
-104 -69 -139 107 0
-104 -67 -140 107 0
-104 -68 -140 108 0
-104 -69 -140 108 0
-104 -67 -141 107 0
-104 -68 -141 108 0
-104 -69 -141 108 0
-105 -67 -139 107 0
-105 -68 -139 107 0
-105 -69 -139 107 0
-105 -67 -140 107 0
-105 -68 -140 108 0
-105 -69 -140 108 0
-105 -67 -141 107 0
-105 -68 -141 108 0
-105 -69 -141 106 0
-139 -103 -175 143 0
-139 -104 -175 143 0
-139 -105 -175 143 0
-139 -103 -176 143 0
-139 -104 -176 143 0
-139 -105 -176 143 0
-139 -103 -177 143 0
-139 -104 -177 143 0
-139 -105 -177 143 0
-140 -103 -175 143 0
-140 -104 -175 143 0
-140 -105 -175 143 0
-140 -103 -176 143 0
-140 -104 -176 144 0
-140 -105 -176 144 0
-140 -103 -177 143 0
-140 -104 -177 144 0
-140 -105 -177 144 0
-141 -103 -175 143 0
-141 -104 -175 143 0
-141 -105 -175 143 0
-141 -103 -176 143 0
-141 -104 -176 144 0
-141 -105 -176 144 0
-141 -103 -177 143 0
-141 -104 -177 144 0
-141 -105 -177 142 0
-175 -139 179 0
-175 -140 179 0
-175 -141 179 0
-176 -139 179 0
-176 -140 180 0
-176 -141 180 0
-177 -139 179 0
-177 -140 180 0
-177 -141 178 0
182 183 184 185 186 187 188 189 190 191 192 0
196 197 198 -182 0
1 -196 0
4 -196 0
2 -197 0
5 -197 0
3 -198 0
6 -198 0
232 233 234 -182 0
37 -232 0
40 -232 0
38 -233 0
41 -233 0
39 -234 0
42 -234 0
268 269 270 -182 0
73 -268 0
76 -268 0
74 -269 0
77 -269 0
75 -270 0
78 -270 0
304 305 306 -182 0
109 -304 0
112 -304 0
110 -305 0
113 -305 0
111 -306 0
114 -306 0
340 341 342 -182 0
145 -340 0
148 -340 0
146 -341 0
149 -341 0
147 -342 0
150 -342 0
199 200 201 -183 0
1 -199 0
7 -199 0
2 -200 0
8 -200 0
3 -201 0
9 -201 0
235 236 237 -183 0
37 -235 0
43 -235 0
38 -236 0
44 -236 0
39 -237 0
45 -237 0
271 272 273 -183 0
73 -271 0
79 -271 0
74 -272 0
80 -272 0
75 -273 0
81 -273 0
307 308 309 -183 0
109 -307 0
115 -307 0
110 -308 0
116 -308 0
111 -309 0
117 -309 0
343 344 345 -183 0
145 -343 0
151 -343 0
146 -344 0
152 -344 0
147 -345 0
153 -345 0
202 203 204 -184 0
1 -202 0
10 -202 0
2 -203 0
11 -203 0
3 -204 0
12 -204 0
238 239 240 -184 0
37 -238 0
46 -238 0
38 -239 0
47 -239 0
39 -240 0
48 -240 0
274 275 276 -184 0
73 -274 0
82 -274 0
74 -275 0
83 -275 0
75 -276 0
84 -276 0
310 311 312 -184 0
109 -310 0
118 -310 0
110 -311 0
119 -311 0
111 -312 0
120 -312 0
346 347 348 -184 0
145 -346 0
154 -346 0
146 -347 0
155 -347 0
147 -348 0
156 -348 0
205 206 207 -185 0
1 -205 0
13 -205 0
2 -206 0
14 -206 0
3 -207 0
15 -207 0
241 242 243 -185 0
37 -241 0
49 -241 0
38 -242 0
50 -242 0
39 -243 0
51 -243 0
277 278 279 -185 0
73 -277 0
85 -277 0
74 -278 0
86 -278 0
75 -279 0
87 -279 0
313 314 315 -185 0
109 -313 0
121 -313 0
110 -314 0
122 -314 0
111 -315 0
123 -315 0
349 350 351 -185 0
145 -349 0
157 -349 0
146 -350 0
158 -350 0
147 -351 0
159 -351 0
208 209 210 -186 0
1 -208 0
16 -208 0
2 -209 0
17 -209 0
3 -210 0
18 -210 0
244 245 246 -186 0
37 -244 0
52 -244 0
38 -245 0
53 -245 0
39 -246 0
54 -246 0
280 281 282 -186 0
73 -280 0
88 -280 0
74 -281 0
89 -281 0
75 -282 0
90 -282 0
316 317 318 -186 0
109 -316 0
124 -316 0
110 -317 0
125 -317 0
111 -318 0
126 -318 0
352 353 354 -186 0
145 -352 0
160 -352 0
146 -353 0
161 -353 0
147 -354 0
162 -354 0
211 212 213 -187 0
1 -211 0
19 -211 0
2 -212 0
20 -212 0
3 -213 0
21 -213 0
247 248 249 -187 0
37 -247 0
55 -247 0
38 -248 0
56 -248 0
39 -249 0
57 -249 0
283 284 285 -187 0
73 -283 0
91 -283 0
74 -284 0
92 -284 0
75 -285 0
93 -285 0
319 320 321 -187 0
109 -319 0
127 -319 0
110 -320 0
128 -320 0
111 -321 0
129 -321 0
355 356 357 -187 0
145 -355 0
163 -355 0
146 -356 0
164 -356 0
147 -357 0
165 -357 0
214 215 216 -188 0
1 -214 0
22 -214 0
2 -215 0
23 -215 0
3 -216 0
24 -216 0
250 251 252 -188 0
37 -250 0
58 -250 0
38 -251 0
59 -251 0
39 -252 0
60 -252 0
286 287 288 -188 0
73 -286 0
94 -286 0
74 -287 0
95 -287 0
75 -288 0
96 -288 0
322 323 324 -188 0
109 -322 0
130 -322 0
110 -323 0
131 -323 0
111 -324 0
132 -324 0
358 359 360 -188 0
145 -358 0
166 -358 0
146 -359 0
167 -359 0
147 -360 0
168 -360 0
217 218 219 -189 0
1 -217 0
25 -217 0
2 -218 0
26 -218 0
3 -219 0
27 -219 0
253 254 255 -189 0
37 -253 0
61 -253 0
38 -254 0
62 -254 0
39 -255 0
63 -255 0
289 290 291 -189 0
73 -289 0
97 -289 0
74 -290 0
98 -290 0
75 -291 0
99 -291 0
325 326 327 -189 0
109 -325 0
133 -325 0
110 -326 0
134 -326 0
111 -327 0
135 -327 0
361 362 363 -189 0
145 -361 0
169 -361 0
146 -362 0
170 -362 0
147 -363 0
171 -363 0
220 221 222 -190 0
1 -220 0
28 -220 0
2 -221 0
29 -221 0
3 -222 0
30 -222 0
256 257 258 -190 0
37 -256 0
64 -256 0
38 -257 0
65 -257 0
39 -258 0
66 -258 0
292 293 294 -190 0
73 -292 0
100 -292 0
74 -293 0
101 -293 0
75 -294 0
102 -294 0
328 329 330 -190 0
109 -328 0
136 -328 0
110 -329 0
137 -329 0
111 -330 0
138 -330 0
364 365 366 -190 0
145 -364 0
172 -364 0
146 -365 0
173 -365 0
147 -366 0
174 -366 0
223 224 225 -191 0
1 -223 0
31 -223 0
2 -224 0
32 -224 0
3 -225 0
33 -225 0
259 260 261 -191 0
37 -259 0
67 -259 0
38 -260 0
68 -260 0
39 -261 0
69 -261 0
295 296 297 -191 0
73 -295 0
103 -295 0
74 -296 0
104 -296 0
75 -297 0
105 -297 0
331 332 333 -191 0
109 -331 0
139 -331 0
110 -332 0
140 -332 0
111 -333 0
141 -333 0
367 368 369 -191 0
145 -367 0
175 -367 0
146 -368 0
176 -368 0
147 -369 0
177 -369 0
226 227 228 -192 0
1 -226 0
34 -226 0
2 -227 0
35 -227 0
3 -228 0
36 -228 0
262 263 264 -192 0
37 -262 0
70 -262 0
38 -263 0
71 -263 0
39 -264 0
72 -264 0
298 299 300 -192 0
73 -298 0
106 -298 0
74 -299 0
107 -299 0
75 -300 0
108 -300 0
334 335 336 -192 0
109 -334 0
142 -334 0
110 -335 0
143 -335 0
111 -336 0
144 -336 0
370 371 372 -192 0
145 -370 0
178 -370 0
146 -371 0
179 -371 0
147 -372 0
180 -372 0
-1 -37 -73 -109 -145 0
-2 -38 -74 -110 -146 0
-3 -39 -75 -111 -147 0
